# vtk DataFile Version 4.0
vtk output
ASCII
DATASET UNSTRUCTURED_GRID
POINTS 8 float
0.0000000e+00 0.0000000e+00 -1.0000000e+00 
2.0000000e+01 0.0000000e+00 -1.0000000e+00 
2.0000000e+01 0.0000000e+00 1.0000000e+00 
0.0000000e+00 0.0000000e+00 1.0000000e+00 
2.0000000e+01 2.0000000e+01 -1.0000000e+00 
2.0000000e+01 2.0000000e+01 1.0000000e+00 
0.0000000e+00 2.0000000e+01 -1.0000000e+00 
0.0000000e+00 2.0000000e+01 1.0000000e+00 

CELLS 12 48
3 0 1 2
3 0 2 3
3 1 4 5
3 1 5 2
3 4 6 7
3 4 7 5
3 6 0 3
3 6 3 7
3 1 0 6
3 6 4 1
3 2 7 3
3 7 2 5

CELL_TYPES 12
5
5
5
5
5
5
5
5
5
5
5
5
POINT_DATA 8
FIELD FieldData 3
DISPLACEMENT 3 8  float
9.1308020e-06 -4.2395521e-07 -2.3729633e-06 
1.1802446e-02 9.1266536e-08 1.2847641e-01 
-9.8004229e-03 -1.4388037e-07 1.2847652e-01 
-8.4293049e-07 -4.3294999e-09 -1.2898886e-08 
1.1800797e-02 1.0853783e-07 1.2847897e-01 
-9.8018749e-03 -1.3579908e-07 1.2847885e-01 
8.5052005e-07 -1.1528805e-08 -1.5483868e-08 
-1.1656460e-05 -6.0291825e-07 -1.9376182e-06 
CAUCHY_STRESS_VECTOR 6 8  float
1.7243141e+02 2.6358595e-01 3.2609725e+00 -2.6448431e+00 1.0290525e+00 -3.3502939e+00 
5.6269684e+01 8.3146291e-03 4.6099007e-02 -3.5328600e-01 8.8855036e-02 5.7895911e-01 
-3.6525539e+01 7.9041878e-03 2.4181715e-01 -3.4722891e-01 -8.5306264e-02 2.9502368e+00 
-1.6063342e+02 2.5602840e-03 -4.6756871e-02 4.0241787e-01 -1.4395835e-03 1.7776917e+00 
5.6876698e+01 -4.3717716e-03 -2.1301913e-01 -9.3982369e-03 2.5225222e-02 2.6038733e+00 
-3.5823284e+01 -1.0371422e-02 -4.1413687e-02 3.2504912e-02 -3.9893609e-02 1.0602752e+00 
1.8076590e+02 -6.5112971e-03 4.4745505e-02 1.3426392e-01 6.5209968e-03 1.4311991e+00 
-1.5151456e+02 -3.7483734e-01 -2.6628034e+00 -3.6787467e+00 -1.0164702e+00 -4.3729324e+00 
VON_MISES_STRESS 1 8  float
1.7085822e+02
5.6254963e+01
3.7010647e+01
1.6064235e+02
5.7163891e+01
3.5844589e+01
1.8076395e+02
1.5034532e+02
CELL_DATA 12
FIELD FieldData 0
