# vtk DataFile Version 4.0
vtk output
ASCII
DATASET UNSTRUCTURED_GRID
POINTS 8 float
0.0000000e+00 0.0000000e+00 -1.0000000e+00 
2.0000000e+01 0.0000000e+00 -1.0000000e+00 
2.0000000e+01 0.0000000e+00 1.0000000e+00 
0.0000000e+00 0.0000000e+00 1.0000000e+00 
2.0000000e+01 2.0000000e+01 -1.0000000e+00 
2.0000000e+01 2.0000000e+01 1.0000000e+00 
0.0000000e+00 2.0000000e+01 -1.0000000e+00 
0.0000000e+00 2.0000000e+01 1.0000000e+00 

CELLS 12 48
3 0 1 2
3 0 2 3
3 1 4 5
3 1 5 2
3 4 6 7
3 4 7 5
3 6 0 3
3 6 3 7
3 1 0 6
3 6 4 1
3 2 7 3
3 7 2 5

CELL_TYPES 12
5
5
5
5
5
5
5
5
5
5
5
5
POINT_DATA 8
FIELD FieldData 3
DISPLACEMENT 3 8  float
9.1308020e-06 -4.2395490e-07 -2.3729649e-06 
1.1801780e-02 7.6357281e-08 1.2847631e-01 
-9.8005515e-03 -1.6151377e-07 1.2847641e-01 
-8.4293055e-07 -4.3294857e-09 -1.2898931e-08 
1.1800798e-02 1.0409894e-07 1.2847884e-01 
-9.8014390e-03 -1.3444753e-07 1.2847875e-01 
8.5052005e-07 -1.1528805e-08 -1.5483868e-08 
-1.1656461e-05 -6.0291836e-07 -1.9376184e-06 
CAUCHY_STRESS_VECTOR 6 8  float
1.7243143e+02 2.6358578e-01 3.2609746e+00 -2.6448445e+00 1.0290527e+00 -3.3502915e+00 
5.5917343e+01 1.3695108e-02 6.2579550e-02 -1.9656509e-01 6.9779150e-02 1.1917393e+00 
-3.6631046e+01 1.1054166e-02 1.5690531e-01 -2.3120734e-01 -6.3042030e-02 2.5977345e+00 
-1.6063344e+02 2.5602761e-03 -4.6756953e-02 4.0241915e-01 -1.4395596e-03 1.7776939e+00 
5.6912304e+01 -3.1635703e-03 -1.2613323e-01 7.2140186e-03 1.6463587e-02 2.4371526e+00 
-3.5589447e+01 -8.0862772e-03 -4.2339820e-02 6.4723529e-02 -2.7346741e-02 1.4302642e+00 
1.8076591e+02 -6.5112971e-03 4.4745509e-02 1.3426417e-01 6.5209968e-03 1.4311997e+00 
-1.5151456e+02 -3.7483740e-01 -2.6628036e+00 -3.6787472e+00 -1.0164703e+00 -4.3729324e+00 
VON_MISES_STRESS 1 8  float
1.7085822e+02
5.5918503e+01
3.6992241e+01
1.6064236e+02
5.7133217e+01
3.5650627e+01
1.8076395e+02
1.5034532e+02
CELL_DATA 12
FIELD FieldData 0
