# vtk DataFile Version 4.0
vtk output
ASCII
DATASET UNSTRUCTURED_GRID
POINTS 8 float
0.0000000e+00 0.0000000e+00 -1.0000000e+00 
2.0000000e+01 0.0000000e+00 -1.0000000e+00 
2.0000000e+01 0.0000000e+00 1.0000000e+00 
0.0000000e+00 0.0000000e+00 1.0000000e+00 
2.0000000e+01 2.0000000e+01 -1.0000000e+00 
2.0000000e+01 2.0000000e+01 1.0000000e+00 
0.0000000e+00 2.0000000e+01 -1.0000000e+00 
0.0000000e+00 2.0000000e+01 1.0000000e+00 

CELLS 12 48
3 0 1 2
3 0 2 3
3 1 4 5
3 1 5 2
3 4 6 7
3 4 7 5
3 6 0 3
3 6 3 7
3 1 0 6
3 6 4 1
3 2 7 3
3 7 2 5

CELL_TYPES 12
5
5
5
5
5
5
5
5
5
5
5
5
POINT_DATA 8
FIELD FieldData 3
DISPLACEMENT 3 8  float
9.1540023e-06 -4.2581161e-07 -2.3797609e-06 
1.1707567e-02 6.7448587e-04 1.2795362e-01 
-9.7338269e-03 -5.9821631e-04 1.2816484e-01 
-8.4341514e-07 -4.2839936e-09 -1.3005971e-08 
1.2484822e-02 -1.1841072e-03 1.2766472e-01 
-9.9645182e-03 1.9782119e-04 1.2847807e-01 
8.5088169e-07 -1.1486103e-08 -1.5570167e-08 
-1.1681839e-05 -6.0500940e-07 -1.9423319e-06 
CAUCHY_STRESS_VECTOR 6 8  float
1.7250957e+02 2.6473925e-01 3.2703185e+00 -2.6651726e+00 1.0324401e+00 -3.3389030e+00 
1.7183863e+01 -3.9833721e+01 1.8535421e+01 1.9523834e+02 8.4658804e+00 -1.3009006e+02 
1.3201312e+01 5.4892067e+01 -1.1097196e+01 -1.6846324e+02 9.7448359e+00 -7.4093666e+01 
-1.6072588e+02 2.5374577e-03 -4.6987843e-02 4.1607225e-01 -1.3910801e-03 1.8013889e+00 
4.1043515e+02 -1.4464151e+02 1.4434279e+01 -2.2613144e+02 -4.0460029e+00 -1.9942506e+02 
-1.0856580e+02 4.6350288e+01 -1.7793652e+01 4.4441466e+00 -1.0729104e+01 3.1697023e+01 
1.8085152e+02 -6.4901588e-03 4.4922952e-02 1.4732319e-01 6.4818994e-03 1.4542181e+00 
-1.5158702e+02 -3.7613684e-01 -2.6692853e+00 -3.6989145e+00 -1.0193714e+00 -4.3645172e+00 
VON_MISES_STRESS 1 8  float
1.7093149e+02
4.1069357e+02
3.2440045e+02
1.6073557e+02
7.1964050e+02
1.4695308e+02
1.8085002e+02
1.5041460e+02
CELL_DATA 12
FIELD FieldData 0
