# vtk DataFile Version 4.0
vtk output
ASCII
DATASET UNSTRUCTURED_GRID
POINTS 8 float
0.0000000e+00 0.0000000e+00 -1.0000000e+00 
2.0000000e+01 0.0000000e+00 -1.0000000e+00 
2.0000000e+01 0.0000000e+00 1.0000000e+00 
0.0000000e+00 0.0000000e+00 1.0000000e+00 
2.0000000e+01 2.0000000e+01 -1.0000000e+00 
2.0000000e+01 2.0000000e+01 1.0000000e+00 
0.0000000e+00 2.0000000e+01 -1.0000000e+00 
0.0000000e+00 2.0000000e+01 1.0000000e+00 

CELLS 12 48
3 0 1 2
3 0 2 3
3 1 4 5
3 1 5 2
3 4 6 7
3 4 7 5
3 6 0 3
3 6 3 7
3 1 0 6
3 6 4 1
3 2 7 3
3 7 2 5

CELL_TYPES 12
5
5
5
5
5
5
5
5
5
5
5
5
POINT_DATA 8
FIELD FieldData 3
DISPLACEMENT 3 8  float
9.1308038e-06 -4.2395621e-07 -2.3729631e-06 
1.1801570e-02 8.2022417e-08 1.2847625e-01 
-9.7998530e-03 -1.5487841e-07 1.2847647e-01 
-8.4293049e-07 -4.3295163e-09 -1.2898881e-08 
1.1799976e-02 1.0891750e-07 1.2847891e-01 
-9.8012434e-03 -1.3216318e-07 1.2847872e-01 
8.5052005e-07 -1.1528805e-08 -1.5483868e-08 
-1.1656461e-05 -6.0291836e-07 -1.9376184e-06 
CAUCHY_STRESS_VECTOR 6 8  float
1.7243141e+02 2.6358658e-01 3.2609720e+00 -2.6448436e+00 1.0290531e+00 -3.3502951e+00 
5.5692024e+01 1.1756926e-02 1.2853876e-01 -3.5974553e-01 1.2320068e-01 5.0446993e-01 
-3.6161022e+01 1.1219664e-02 3.0311763e-01 -3.5142508e-01 -1.1660337e-01 3.1246750e+00 
-1.6063342e+02 2.5602931e-03 -4.6756864e-02 4.0241802e-01 -1.4396016e-03 1.7776920e+00 
5.6325058e+01 -3.6928030e-03 -2.4763477e-01 -6.0741236e-03 3.1388335e-02 2.7309642e+00 
-3.5423893e+01 -9.9057266e-03 -9.4762437e-02 3.4282759e-02 -4.6952426e-02 1.0356810e+00 
1.8076591e+02 -6.5112971e-03 4.4745509e-02 1.3426416e-01 6.5209968e-03 1.4311994e+00 
-1.5151456e+02 -3.7483737e-01 -2.6628034e+00 -3.6787472e+00 -1.0164703e+00 -4.3729324e+00 
VON_MISES_STRESS 1 8  float
1.7085822e+02
5.5632729e+01
3.6725697e+01
1.6064235e+02
5.6648975e+01
3.5417236e+01
1.8076395e+02
1.5034532e+02
CELL_DATA 12
FIELD FieldData 0
