# vtk DataFile Version 4.0
vtk output
ASCII
DATASET UNSTRUCTURED_GRID
POINTS 8 float
0.0000000e+00 0.0000000e+00 -1.0000000e+00 
2.0000000e+01 0.0000000e+00 -1.0000000e+00 
2.0000000e+01 0.0000000e+00 1.0000000e+00 
0.0000000e+00 0.0000000e+00 1.0000000e+00 
2.0000000e+01 2.0000000e+01 -1.0000000e+00 
2.0000000e+01 2.0000000e+01 1.0000000e+00 
0.0000000e+00 2.0000000e+01 -1.0000000e+00 
0.0000000e+00 2.0000000e+01 1.0000000e+00 

CELLS 12 48
3 0 1 2
3 0 2 3
3 1 4 5
3 1 5 2
3 4 6 7
3 4 7 5
3 6 0 3
3 6 3 7
3 1 0 6
3 6 4 1
3 2 7 3
3 7 2 5

CELL_TYPES 12
5
5
5
5
5
5
5
5
5
5
5
5
POINT_DATA 8
FIELD FieldData 3
DISPLACEMENT 3 8  float
9.1540005e-06 -4.2581345e-07 -2.3797597e-06 
1.1707567e-02 6.7448587e-04 1.2795362e-01 
-9.7338269e-03 -5.9821631e-04 1.2816484e-01 
-8.4341514e-07 -4.2840287e-09 -1.3005972e-08 
1.2484822e-02 -1.1841072e-03 1.2766472e-01 
-9.9645182e-03 1.9782119e-04 1.2847807e-01 
8.5088169e-07 -1.1486101e-08 -1.5570167e-08 
-1.1681839e-05 -6.0500935e-07 -1.9423319e-06 
CAUCHY_STRESS_VECTOR 6 8  float
1.7250958e+02 2.6474041e-01 3.2703168e+00 -2.6651711e+00 1.0324410e+00 -3.3389020e+00 
1.7183865e+01 -3.9833725e+01 1.8535418e+01 1.9523836e+02 8.4658785e+00 -1.3009006e+02 
1.3201312e+01 5.4892071e+01 -1.1097193e+01 -1.6846324e+02 9.7448349e+00 -7.4093666e+01 
-1.6072588e+02 2.5374775e-03 -4.6987828e-02 4.1607234e-01 -1.3911147e-03 1.8013890e+00 
4.1043515e+02 -1.4464151e+02 1.4434284e+01 -2.2613144e+02 -4.0460052e+00 -1.9942506e+02 
-1.0856580e+02 4.6350285e+01 -1.7793650e+01 4.4441433e+00 -1.0729107e+01 3.1697023e+01 
1.8085152e+02 -6.4901584e-03 4.4922952e-02 1.4732319e-01 6.4818980e-03 1.4542181e+00 
-1.5158702e+02 -3.7613681e-01 -2.6692853e+00 -3.6989145e+00 -1.0193714e+00 -4.3645172e+00 
VON_MISES_STRESS 1 8  float
1.7093149e+02
4.1069357e+02
3.2440045e+02
1.6073557e+02
7.1964050e+02
1.4695308e+02
1.8085002e+02
1.5041460e+02
CELL_DATA 12
FIELD FieldData 0
